NAME : rnd1_50.tsp
TYPE : TSP
DIMENSION : 50
EDGE_WEIGHT_TYPE : EUC_2D
NODE_COORD_SECTION
1 826 268
2 226 538
3 975 875
4 61 347
5 994 623
6 823 627
7 90 140
8 878 411
9 468 726
10 855 192
11 732 24
12 830 82
13 866 418
14 922 244
15 500 323
16 429 607
17 213 255
18 920 596
19 133 66
20 840 608
21 505 872
22 862 617
23 506 273
24 716 169
25 938 122
26 58 119
27 187 388
28 248 768
29 975 679
30 57 605
31 485 503
32 367 479
33 788 294
34 81 672
35 398 294
36 596 40
37 178 678
38 293 180
39 663 167
40 540 507
41 220 514
42 141 79
43 562 582
44 168 973
45 268 704
46 336 303
47 341 347
48 24 398
49 266 773
50 624 288
